(set-logic QF_UF)
(set-info :status unsat)
(declare-sort Term 0)
(declare-fun f (Term) Term)
(declare-fun a () Term)
(declare-fun p (Term Term) Bool)
(assert (and (and (= a (f (f (f a)))) (= a (f (f (f (f (f a))))))) (and (p a a) (not (p a (f a))))))
(check-sat)
(exit)